100
3 21
2 0
19 58
28 57
9 72
28 31
5 59
11 14
1 89
23 11
4 44
26 29
10 68
17 25
2 32
4 20
2 55
16 18
25 23
17 76
19 17
26 96
20 84
3 88
29 64
0 86
7 35
13 96
12 78
20 53
25 46
3 16
14 49
2 19
26 62
29 20
28 55
2 55
25 30
24 17
24 47
12 55
21 23
3 86
11 25
23 16
2 16
25 77
8 19
11 89
1 44
12 12
27 29
10 96
3 63
2 54
21 69
13 44
2 65
22 98
24 73
11 66
13 99
28 58
10 43
18 51
3 61
3 92
20 82
7 55
1 53
5 59
24 23
20 20
18 38
2 82
28 33
24 5
26 43
17 2
15 16
9 27
11 68
2 72
9 63
16 0
19 41
4 91
1 15
24 4
28 82
25 18
23 39
22 51
25 91
17 21
20 10
20 89
23 23
16 32
